SumColouring/JavaBacktracker/RandomInstances/14_0.15_1.col
c File: instances/14_0.15_1.col
c
c Description: Random graph of size 14 vertices and P(0.15000000000000002) of edges between any two vertices.
p col 14 91
e 1 8
e 1 13
e 2 5
e 2 7
e 3 9
e 4 8
e 4 12
e 5 9
e 5 12
e 5 13
e 6 14
e 7 8
e 9 10
e 9 14
e 11 13
e 12 14