SumColouring/MiniZinc model/Experiments/14_0.15_1.col.dzn
% Data file generated from RandomInstances/14_0.15_1.col DIMACS file
size = 14;

chi = 2;

adjacency = [|0,0,0,0,0,0,0,1,0,0,0,0,1,0,
|0,0,0,0,1,0,1,0,0,0,0,0,0,0,
|0,0,0,0,0,0,0,0,1,0,0,0,0,0,
|0,0,0,0,0,0,0,1,0,0,0,1,0,0,
|0,1,0,0,0,0,0,0,1,0,0,1,1,0,
|0,0,0,0,0,0,0,0,0,0,0,0,0,1,
|0,1,0,0,0,0,0,1,0,0,0,0,0,0,
|1,0,0,1,0,0,1,0,0,0,0,0,0,0,
|0,0,1,0,1,0,0,0,0,1,0,0,0,1,
|0,0,0,0,0,0,0,0,1,0,0,0,0,0,
|0,0,0,0,0,0,0,0,0,0,0,0,1,0,
|0,0,0,1,1,0,0,0,0,0,0,0,0,1,
|1,0,0,0,1,0,0,0,0,0,1,0,0,0,
|0,0,0,0,0,1,0,0,1,0,0,1,0,0,
|];